NAME : portcgen-29-21
COMMENT : portcgen N=29, seed=21
TYPE : TSP
DIMENSION : 29
EDGE_WEIGHT_TYPE : EUC_2D
NODE_COORD_SECTION
1 -125494 91690
2 -125364 177372
3 28578 169765
4 9366 124843
5 54240 -63925
6 -208410 279781
7 124090 -44686
8 -121949 126287
9 -48322 41687
10 129537 235019
11 131659 -391886
12 77411 -57890
13 164782 -460950
14 226105 -128205
15 498363 249702
16 295315 -100806
17 277985 17546
18 -289559 -66161
19 73147 -2013
20 -218018 75158
21 -69711 -59983
22 280873 200756
23 -83193 -308494
24 158742 -50590
25 165018 -230624
26 -221751 -169645
27 8017 -107452
28 -171960 -153116
29 250221 38908
